(declare-const p25_75 Real)
(declare-const income Real)
(declare-const fee_bl Real)
(declare-const sin Real)
(declare-const p19 Real)
(declare-const p14 Real)
(declare-const p24 Real)
(declare-const special Real)
(assert (= p14 (* 0.14 (ite (> income 53255) 53255 income))))
(assert (= p19 (ite (> income 53255) (* 0.19 (- (ite (> income 106495) 106495 income) 53255)) 0)))
(assert (= p24 (ite (> income 106495) (* 0.24 (- (ite (> income 129590) 129590 income) 106495)) 0)))
(assert (= p25_75 (ite (> income 129590) (* 0.2575 (- income 129590)) 0)))
(assert (= special (ite (>= sin 900000000) 0 1)))
(assert (= fee_bl (* special (+ (+ (+ p14 p19) p24) p25_75))))